p cnf 55 197
-2 -1 -3 0
2 1 -3 0
-2 1 3 0
2 -1 3 0
4 -1 0
4 3 0
1 -3 -4 0
-5 4 0
-5 -4 0
6 -7 -8 0
-6 7 -8 0
6 7 8 0
-6 -7 8 0
-9 5 0
-9 8 0
-5 -8 9 0
-11 10 0
-11 -10 0
11 -12 -13 0
-11 12 -13 0
11 12 13 0
-11 -12 13 0
-14 -15 -16 0
14 15 -16 0
-14 15 16 0
14 -15 16 0
-17 -11 0
-17 -16 0
11 16 17 0
-18 13 0
-18 -17 0
-13 17 18 0
-9 18 -19 0
9 -18 -19 0
-9 -18 19 0
9 18 19 0
-15 2 -20 0
15 -2 -20 0
-15 -2 20 0
15 2 20 0
10 20 -21 0
-10 -20 -21 0
10 -20 21 0
-10 20 21 0
14 -6 -22 0
-14 6 -22 0
14 6 22 0
-14 -6 22 0
23 21 0
23 22 0
-21 -22 -23 0
-2 20 -24 0
2 -20 -24 0
-2 -20 24 0
2 20 24 0
23 -24 -25 0
-23 24 -25 0
23 24 25 0
-23 -24 25 0
-26 6 0
-26 -25 0
-6 25 26 0
-27 -1 0
-27 22 0
1 -22 27 0
-28 -27 0
-28 -20 0
27 20 28 0
-29 -26 0
-29 -28 0
26 28 29 0
29 -28 -30 0
-29 28 -30 0
29 28 30 0
-29 -28 30 0
-31 1 0
-31 -1 0
32 31 0
32 -23 0
-31 23 -32 0
35 -33 0
35 34 0
33 -34 -35 0
-32 35 -36 0
32 -35 -36 0
-32 -35 36 0
32 35 36 0
37 -11 0
37 -11 0
11 -37 0
-38 34 0
-38 -2 0
-34 2 38 0
-37 -38 -39 0
37 38 -39 0
-37 38 39 0
37 -38 39 0
-40 -12 0
-40 12 0
-41 -39 0
-41 -40 0
39 40 41 0
42 -36 0
42 -41 0
36 41 -42 0
-30 42 -43 0
30 -42 -43 0
-30 -42 43 0
30 42 43 0
11 12 -44 0
-11 -12 -44 0
11 -12 44 0
-11 12 44 0
45 -38 0
45 -2 0
38 2 -45 0
-46 12 0
-46 -45 0
-12 45 46 0
22 2 -47 0
-22 -2 -47 0
22 -2 47 0
-22 2 47 0
48 38 0
48 47 0
-38 -47 -48 0
1 48 -49 0
-1 -48 -49 0
1 -48 49 0
-1 48 49 0
-46 -49 -50 0
46 49 -50 0
-46 49 50 0
46 -49 50 0
-51 -20 0
-51 -34 0
20 34 51 0
-52 50 0
-52 -51 0
-50 51 52 0
44 52 -53 0
-44 -52 -53 0
44 -52 53 0
-44 52 53 0
-54 43 0
-54 -53 0
-43 53 54 0
19 54 -55 0
-19 -54 -55 0
19 -54 55 0
-19 54 55 0
24 -21 0
52 -30 23 32 0
25 2 31 19 -22 0
9 -1 2 -48 0
31 23 0
-53 -17 15 -34 0
-21 -8 5 18 0
-12 46 -36 51 -37 0
-10 20 -40 -32 0
39 -38 0
12 43 0
-41 -2 32 33 -55 0
21 -32 25 -30 -26 -35 0
-18 -26 -15 0
54 43 0
-6 21 -26 -40 0
-7 -34 38 -37 -48 0
-32 -6 0
-29 15 -21 0
18 -43 -10 0
-50 46 51 0
45 -43 0
36 1 -32 4 0
39 -33 -12 25 -6 -9 0
-28 -38 37 0
2 -13 33 -34 8 0
35 21 -41 32 36 7 0
-33 18 -27 -1 52 0
55 -25 -9 0
-16 17 -5 -1 0
-5 -39 -9 54 35 -16 0
24 -3 54 -55 0
-18 49 5 -23 -27 0
-16 -45 -48 19 1 0
-20 23 13 0
-21 -31 -5 -4 -50 0
-54 -21 48 24 27 46 0
4 0
-3 -7 19 -28 30 0
52 -17 -39 15 6 13 0
50 -39 21 18 -53 0
-21 -23 0
-7 -1 -51 -50 0
-24 20 31 55 52 0
19 -38 -34 0
55 0
